100
914 688
288 122
381 289
355 290
596 233
271 381
201 229
765 642
663 485
302 176
620 956
760 428
323 969
738 153
611 756
244 506
639 865
960 426
367 0
410 923
766 759
730 548
523 469
152 478
553 878
299 74
652 719
621 530
486 235
816 713
465 37
539 647
684 694
586 562
84 854
525 85
824 306
23 168
814 175
605 600
463 743
105 598
545 724
847 878
892 559
520 407
48 405
827 2
627 909
543 225
833 676
386 295
334 48
503 694
438 213
400 304
884 191
66 96
857 187
806 993
964 635
394 347
406 995
134 362
39 989
128 865
739 444
451 359
17 962
636 65
508 894
734 63
98 417
805 672
464 541
800 524
8 326
913 945
942 483
588 909
267 164
932 599
991 581
947 117
775 843
328 845
577 567
169 763
368 692
731 256
282 231
165 935
13 704
98 282
186 448
118 381
846 117
695 460
926 826
943 672
